Route #1: 1 101 103 28 93 97 66 9 102
Route #2: 22 5 44 15 53 43 87 76 60 51 100 45
Route #3: 33 62 78 7 75 24 90 26
Route #4: 82 57 63 31 40 13 54 85 21 72 29
Route #5: 47 61 80 65 98 23 55 3 42 32 35
Route #6: 18 41 10 16 73 89 38 59 95 68 56
Route #7: 74 34 11 99 49 71 46 12 104 92
Route #8: 25 39 50 81 6 70 4 30 20
Route #9: 67 77 83 2 17 48 58 14 79 84 52
Route #10: 19 37 27 86 88 8 36 91 69 105 64 94 96
Cost 20208.000000